p wcnf 2000 200 1
1 1 0
1 2 0
1 3 0
1 4 0
1 5 0
1 6 0
1 7 0
1 8 0
1 9 0
1 10 0
1 11 0
1 12 0
1 1 1 1 1 1 1 1 2 2 2 2 0
1 2 2 2 2 2 2 2 2 2 2 2 0
1 2 2 2 2 3 3 3 3 3 3 3 0
1 3 3 3 3 3 3 3 3 3 3 3 0
1 3 4 4 4 4 4 4 4 4 4 4 0
1 4 4 4 4 4 4 4 4 4 4 5 0
1 5 5 5 5 5 5 5 5 5 5 5 0
1 5 5 5 5 5 5 5 5 6 6 6 0
1 6 6 6 6 6 6 6 6 6 6 6 0
1 6 6 6 6 6 6 6 6 6 6 6 0
1 6 6 6 7 7 7 7 7 7 7 7 0
1 7 7 7 7 7 7 7 7 8 8 8 0
1 8 8 8 8 8 8 8 8 8 8 8 0
1 9 9 9 9 9 9 9 9 9 9 9 0
1 9 9 9 9 9 9 9 9 9 9 9 0
1 9 9 9 9 9 10 10 10 10 10 10 0
1 10 10 10 10 10 10 10 10 10 10 10 0
1 10 10 10 10 11 11 11 11 11 11 11 0
1 11 11 11 11 11 11 11 12 12 12 12 0
1 12 12 12 12 12 12 12 12 12 12 12 0
1 12 12 13 13 13 13 13 13 13 13 13 0
1 13 13 13 13 13 13 13 14 14 14 14 0
1 14 14 14 14 14 14 14 14 15 15 15 0
1 15 15 15 15 15 15 15 15 15 15 15 0
1 15 15 15 15 15 15 16 16 16 16 16 0
1 16 16 16 16 16 16 16 16 16 16 16 0
1 17 17 17 17 17 17 17 17 17 17 17 0
1 17 18 18 18 18 18 18 18 18 18 18 0
1 18 18 18 18 18 18 19 19 19 19 19 0
1 19 19 19 19 19 19 19 19 19 19 19 0
1 19 19 19 19 19 19 20 20 20 20 20 0
1 20 20 20 20 21 21 21 21 21 21 21 0
1 21 21 21 21 21 21 21 21 21 21 21 0
1 21 21 21 21 21 22 22 22 22 22 22 0
1 22 22 22 22 22 22 22 22 22 23 23 0
1 23 23 23 23 23 23 23 23 23 23 23 0
1 23 23 23 24 24 24 24 24 24 24 24 0
1 24 24 24 24 24 25 25 25 25 25 25 0
1 25 25 25 25 25 25 25 25 25 25 25 0
1 25 25 26 26 26 26 26 26 26 26 26 0
1 26 26 26 26 26 26 26 26 26 26 26 0
1 26 26 26 26 27 27 27 27 27 27 27 0
1 27 27 27 27 27 27 27 27 27 27 27 0
1 27 27 27 27 27 27 27 27 27 27 27 0
1 28 28 28 28 28 28 28 28 28 28 28 0
1 28 28 28 28 28 28 28 28 29 29 29 0
1 29 29 29 29 29 29 29 29 29 29 29 0
1 30 30 30 30 30 30 30 30 30 30 30 0
1 30 30 30 30 31 31 31 31 31 31 31 0
1 31 31 31 31 31 31 31 31 31 31 31 0
1 31 31 31 31 31 31 31 32 32 32 32 0
1 32 32 32 32 32 32 32 32 32 32 32 0
1 33 33 33 33 33 33 33 33 33 33 33 0
1 33 33 33 33 34 34 34 34 34 34 34 0
1 34 34 34 34 34 34 34 34 34 35 35 0
1 35 35 35 35 35 35 35 35 35 35 35 0
1 35 35 35 35 35 35 36 36 36 36 36 0
1 36 36 36 36 36 36 36 36 36 36 37 0
1 37 37 37 37 37 37 37 37 37 37 37 0
1 37 37 37 38 38 38 38 38 38 38 38 0
1 38 38 38 38 38 39 39 39 39 39 39 0
1 39 39 39 39 39 39 39 39 39 39 39 0
1 39 40 40 40 40 40 40 40 40 40 40 0
1 40 40 40 40 40 40 40 40 40 40 41 0
1 41 41 41 41 41 41 41 41 41 41 41 0
1 42 42 42 42 42 42 42 42 42 42 42 0
1 42 42 42 42 42 42 43 43 43 43 43 0
1 43 43 43 43 43 44 44 44 44 44 44 0
1 44 44 44 44 44 44 44 44 44 44 44 0
1 45 45 45 45 45 45 45 45 45 45 45 0
1 45 45 45 45 45 45 45 45 45 45 45 0
1 46 46 46 46 46 46 46 46 46 46 46 0
1 46 46 46 46 46 47 47 47 47 47 47 0
1 47 47 47 47 47 47 47 47 48 48 48 0
1 48 48 48 48 48 48 48 48 48 48 48 0
1 49 49 49 49 49 49 49 49 49 49 49 0
1 49 49 49 49 50 50 50 50 50 50 50 0
1 50 50 50 50 50 50 50 50 50 50 50 0
1 50 50 50 50 50 50 51 51 51 51 51 0
1 51 51 51 51 51 51 51 51 51 51 51 0
1 51 51 51 51 51 51 52 52 52 52 52 0
1 52 52 52 52 52 52 52 52 52 52 52 0
1 52 52 52 52 52 52 52 52 53 53 53 0
1 53 53 53 53 53 53 53 53 53 53 53 0
1 53 53 53 53 54 54 54 54 54 54 54 0
1 54 54 54 54 54 54 54 54 54 54 54 0
1 54 54 54 54 54 54 55 55 55 55 55 0
1 55 55 55 55 55 55 55 55 55 55 55 0
1 55 56 56 56 56 56 56 56 56 56 56 0
1 56 56 56 56 56 56 56 56 56 56 57 0
1 57 57 57 57 57 57 57 57 57 57 57 0
1 57 57 57 57 57 57 57 57 57 57 57 0
1 58 58 58 58 58 58 58 58 58 58 58 0
1 58 58 58 58 58 58 58 58 58 58 58 0
1 58 58 58 59 59 59 59 59 59 59 59 0
1 59 59 59 59 59 59 59 59 59 60 60 0
1 60 60 60 60 60 60 60 60 60 60 60 0
1 60 60 60 60 60 60 60 60 60 61 61 0
1 61 61 61 61 61 61 61 61 61 61 61 0
1 61 61 61 61 61 61 61 62 62 62 62 0
1 62 62 62 62 62 62 62 62 62 62 62 0
1 63 63 63 63 63 63 63 63 63 63 63 0
1 63 63 63 64 64 64 64 64 64 64 64 0
1 64 64 64 64 64 64 64 64 64 65 65 0
1 65 65 65 65 65 65 65 65 65 65 65 0
1 65 65 65 65 65 65 65 65 65 66 66 0
1 66 66 66 66 66 66 66 66 66 66 66 0
1 66 66 66 66 66 66 66 66 66 66 66 0
1 66 66 66 67 67 67 67 67 67 67 67 0
1 67 67 67 67 67 67 67 67 67 68 68 0
1 68 68 68 68 68 68 68 68 68 68 68 0
1 68 68 68 68 68 68 68 68 68 69 69 0
1 69 69 69 69 69 69 69 69 69 69 69 0
1 69 69 69 69 69 69 69 69 70 70 70 0
1 70 70 70 70 70 70 70 70 70 70 70 0
1 70 70 70 70 70 70 70 70 70 71 71 0
1 71 71 71 71 71 71 71 71 71 71 71 0
1 71 71 71 71 71 71 71 72 72 72 72 0
1 72 72 72 72 72 72 72 72 72 72 72 0
1 72 73 73 73 73 73 73 73 73 73 73 0
1 73 73 73 73 73 73 73 73 73 73 74 0
1 74 74 74 74 74 74 74 74 74 74 74 0
1 74 74 74 75 75 75 75 75 75 75 75 0
1 75 75 75 75 75 75 75 75 75 75 75 0
1 75 75 75 76 76 76 76 76 76 76 76 0
1 76 76 76 76 76 76 76 76 76 76 76 0
1 77 77 77 77 77 77 77 77 77 77 77 0
1 77 77 77 77 77 77 78 78 78 78 78 0
1 78 78 78 78 78 78 78 78 78 78 78 0
1 78 78 78 78 78 78 79 79 79 79 79 0
1 79 79 79 79 79 79 79 79 79 79 79 0
1 79 79 79 79 79 79 79 79 79 79 79 0
1 80 80 80 80 80 80 80 80 80 80 80 0
1 80 80 80 80 80 80 80 80 80 81 81 0
1 81 81 81 81 81 81 81 81 81 81 81 0
1 81 81 81 81 82 82 82 82 82 82 82 0
1 82 82 82 82 82 82 82 82 82 82 82 0
1 82 83 83 83 83 83 83 83 83 83 83 0
1 83 83 84 84 84 84 84 84 84 84 84 0
1 84 84 84 84 84 84 84 84 85 85 85 0
1 85 85 85 85 85 85 85 85 85 85 85 0
1 85 85 85 86 86 86 86 86 86 86 86 0
1 86 86 86 86 86 86 86 86 86 86 86 0
1 86 87 87 87 87 87 87 87 87 87 87 0
1 87 87 87 87 87 87 87 87 87 87 87 0
1 88 88 88 88 88 88 88 88 88 88 88 0
1 88 88 88 88 88 88 88 88 88 88 89 0
1 89 89 89 89 89 89 89 89 89 89 89 0
1 89 89 89 89 89 90 90 90 90 90 90 0
1 90 90 90 90 90 90 90 90 90 91 91 0
1 91 91 91 91 91 91 91 91 91 91 91 0
1 91 91 91 91 92 92 92 92 92 92 92 0
1 92 92 92 92 92 92 92 92 92 92 92 0
1 92 93 93 93 93 93 93 93 93 93 93 0
1 93 93 93 93 93 93 93 93 94 94 94 0
1 94 94 94 94 94 94 94 94 94 94 94 0
1 94 94 94 94 94 94 94 94 95 95 95 0
1 95 95 95 95 95 95 95 95 95 95 95 0
1 95 95 95 96 96 96 96 96 96 96 96 0
1 96 96 96 96 96 96 96 96 96 96 97 0
1 97 97 97 97 97 97 97 97 97 97 97 0
1 97 97 97 97 97 97 97 98 98 98 98 0
1 98 98 98 98 98 98 98 98 98 98 98 0
1 98 98 98 98 98 98 99 99 99 99 99 0
1 99 99 99 99 99 100 100 100 100 100 100 0
1 100 100 100 100 100 100 100 0
1  0
1 60 63 67 110 135 163 205 222 259 286 419 0
1 621 658 692 718 741 838 1103 1200 1217 1361 1362 0
1 1396 1400 1484 1485 1559 1560 1601 1641 1691 1698 1742 0
1 1853 1924 0
1  0
1 21 29 49 52 82 113 119 251 404 448 470 0
1 597 636 657 698 717 738 893 898 922 1018 1027 0
1 1040 1056 1065 1099 1103 1146 1233 1357 1472 1477 1486 0
1 1568 1618 1656 1696 1766 1813 1834 1864 1876 1892 1916 0
1  0
1 75 117 125 159 160 240 265 341 394 512 520 0
1 686 721 785 791 846 849 948 1094 1098 1147 1193 0
1 1227 1314 1373 1383 1385 1417 1433 1481 1615 1631 1721 0
1 1830 1845 1854 0
1  0
1 24 66 139 275 342 370 415 461 511 529 543 0
1 740 764 879 984 992 1021 1064 1069 1074 1116 1130 0
1 1176 1244 1315 1361 1401 1431 1487 1506 1627 1645 1654 0
1 1782 1812 1816 1875 1902 0
1  0
1 86 184 212 248 316 416 453 497 672 677 734 0
1 940 961 984 1095 1193 1252 1285 1293 1326 1332 1373 0
1 1486 1499 1545 1554 1558 1561 1673 1681 1710 1717 1734 0
1 1744 1749 1755 1758 1836 1861 1882 0
1  0
1 66 92 254 287 582 601 718 759 809 957 977 0
1 1169 1177 1199 1232 1257 1283 1289 1298 1309 1335 1413 0
1 1446 1448 1539 1572 1598 1714 1834 1940 1964 0
1  0
1 96 154 245 276 344 388 395 424 604 606 619 0
1 674 825 854 855 918 922 949 999 1062 1063 1119 0
1 1217 1365 1380 1427 1474 1540 1545 1580 1609 1619 1678 0
1 1711 1721 1777 1859 1879 1926 1971 1993 0
